<number of tasks>
50

<cycle time>
1000

<order strength>
0.598


<task times>
1 279
2 469
3 407
4 425
5 532
6 561
7 729
8 468
9 391
10 747
11 586
12 451
13 434
14 474
15 567
16 524
17 333
18 447
19 581
20 527
21 403
22 590
23 401
24 584
25 397
26 322
27 551
28 496
29 503
30 391
31 361
32 684
33 674
34 587
35 526
36 419
37 462
38 506
39 614
40 609
41 388
42 551
43 536
44 301
45 421
46 531
47 548
48 477
49 226
50 646

<precedence relations>
1,5
2,4
2,5
2,6
3,4
3,5
3,6
4,7
4,8
4,9
4,10
4,11
5,7
5,8
5,9
6,10
6,11
6,18
6,28
7,12
7,13
7,18
7,24
8,14
8,32
8,35
9,12
9,13
9,15
10,12
10,21
11,25
11,35
12,17
12,25
12,35
13,20
13,40
14,23
15,16
15,18
16,19
16,23
16,24
17,20
17,42
17,43
18,21
18,22
18,32
19,28
20,29
21,25
21,26
21,27
22,30
22,33
23,25
23,29
24,25
24,29
25,31
25,33
25,34
26,44
27,30
27,31
27,35
28,32
28,35
30,38
30,40
31,37
31,50
32,48
32,50
33,42
33,48
34,36
34,37
34,38
34,39
34,40
35,36
35,46
36,44
36,47
37,43
37,46
37,49
38,45
38,46
39,41
40,42
40,44
43,48
44,49
45,47
45,50
46,47

<end>
